(set-logic HORN)
(set-info :source |
    Benchmark: 
    Output by Princess (http://www.philipp.ruemmer.org/princess.shtml)
|)
(declare-heap Heap Addr HeapObject
 defObj
 ((HeapObject 0) (packet 0) (packet_list_node 0)) (
  (
   (O_Int (getInt Int))
   (O_UInt (getUInt Int))
   (O_Addr (getAddr Addr))
   (O_AddrRange (getAddrRange AddrRange))
   (O_packet (getpacket packet))
   (O_packet_list_node (getpacket_list_node packet_list_node))
   (defObj)
  )
  (
   (packet (|packet::size| Int) (|packet::prio| Int) (|packet::payload| Addr))
  )
  (
   (packet_list_node (|packet_list_node::packet| packet) (|packet_list_node::next| Addr))
  )
))
(declare-fun _Glue3 (Heap Addr Addr Addr HeapObject) Bool)
(declare-fun inv_main612_5 (Heap Addr Addr) Bool)
(declare-fun Inv_Heap_exp_exp_exp (Addr Int Int Addr Addr) Bool)
(declare-fun inv_main605_13 (Heap Addr) Bool)
(declare-fun inv_main597_87 (Heap Addr Addr) Bool)
(declare-fun inv_main604_87 (Heap Addr) Bool)
(declare-fun _Glue5_exp (Addr Addr Int Addr Addr Heap HeapObject) Bool)
(declare-fun _Glue9_exp (Addr Addr Int Addr Addr Heap HeapObject) Bool)
(declare-fun _Glue7 (Heap Addr Addr Addr HeapObject) Bool)
(declare-fun _Glue11 (Heap Addr Addr Addr HeapObject) Bool)
(declare-fun _Glue1_exp (Addr Addr Int Addr Addr Heap HeapObject) Bool)
(assert (forall ((var0 Addr) (var1 packet) (var2 HeapObject) (var3 packet_list_node) (var4 Addr) (var5 Heap) (var6 Addr) (var7 Addr) (var8 Int) (var9 Addr)) (or (not (and (and (Inv_Heap_exp_exp_exp var9 var8 1 var7 var6) (inv_main597_87 var5 var4 var9)) (and (and (and (and (and (and (= (O_packet_list_node var3) var2) (= (packet_list_node var1 var6) var3)) (= (packet var8 1 var7) var1)) (= nullAddr var0)) (= (read var5 var9) var2)) (not (= var9 var0))) (valid var5 var9)))) (inv_main597_87 var5 var4 var6))))
(assert (forall ((var0 Addr) (var1 packet) (var2 packet_list_node) (var3 HeapObject) (var4 Addr) (var5 Addr) (var6 Addr) (var7 Heap)) (or (not (and (inv_main597_87 var7 var6 var5) (and (and (and (and (and (and (and (= nullAddr var4) (= (read var7 var5) var3)) (= (getpacket_list_node var3) var2)) (= (|packet_list_node::packet| var2) var1)) (= (|packet::prio| var1) 1)) (= (|packet_list_node::next| var2) var0)) (not (= var5 var4))) (not (valid var7 var5))))) (inv_main597_87 var7 var6 var0))))
(assert (forall ((var0 Addr) (var1 packet) (var2 HeapObject) (var3 packet_list_node) (var4 Addr) (var5 Heap) (var6 Addr) (var7 Addr) (var8 Int) (var9 Int) (var10 Addr)) (not (and (and (Inv_Heap_exp_exp_exp var10 var9 var8 var7 var6) (inv_main597_87 var5 var4 var10)) (and (and (and (and (and (and (and (and (= (O_packet_list_node var3) var2) (= (packet_list_node var1 var6) var3)) (= (packet var9 var8 var7) var1)) (= nullAddr var0)) (= (read var5 var10) var2)) (not (= var10 var0))) (not (<= 0 (+ (+ 500 (* (- 1) var9)) (- 1))))) (not (= var8 1))) (valid var5 var10))))))
(assert (forall ((var0 Int) (var1 Int) (var2 packet) (var3 packet_list_node) (var4 HeapObject) (var5 Addr) (var6 Addr) (var7 Addr) (var8 Heap)) (not (and (inv_main597_87 var8 var7 var6) (and (and (and (and (and (and (and (and (and (= nullAddr var5) (= (read var8 var6) var4)) (= (getpacket_list_node var4) var3)) (= (|packet_list_node::packet| var3) var2)) (= (|packet::size| var2) var1)) (= (|packet::prio| var2) var0)) (not (= var6 var5))) (not (<= 0 (+ (+ 500 (* (- 1) var1)) (- 1))))) (not (= var0 1))) (not (valid var8 var6)))))))
(assert (forall ((var0 Addr) (var1 packet) (var2 HeapObject) (var3 packet_list_node) (var4 Heap) (var5 Addr) (var6 Addr) (var7 Int) (var8 Addr)) (or (not (and (and (Inv_Heap_exp_exp_exp var8 var7 0 var6 var5) (inv_main604_87 var4 var8)) (and (and (and (and (and (and (and (= (O_packet_list_node var3) var2) (= (packet_list_node var1 var5) var3)) (= (packet var7 0 var6) var1)) (= nullAddr var0)) (= (read var4 var8) var2)) (not (= var8 var0))) (not (<= 0 (+ var7 (- 500))))) (valid var4 var8)))) (inv_main605_13 var4 var8))))
(assert (forall ((var0 Int) (var1 packet) (var2 packet_list_node) (var3 HeapObject) (var4 Addr) (var5 Addr) (var6 Heap)) (or (not (and (inv_main604_87 var6 var5) (and (and (and (and (and (and (and (and (= nullAddr var4) (= (read var6 var5) var3)) (= (getpacket_list_node var3) var2)) (= (|packet_list_node::packet| var2) var1)) (= (|packet::size| var1) var0)) (= (|packet::prio| var1) 0)) (not (= var5 var4))) (not (<= 0 (+ var0 (- 500))))) (not (valid var6 var5))))) (inv_main605_13 var6 var5))))
(assert (forall ((var0 AllocResHeap) (var1 Int) (var2 Addr) (var3 Int) (var4 Int) (var5 Addr) (var6 packet) (var7 HeapObject) (var8 packet_list_node) (var9 Addr) (var10 Addr) (var11 Heap)) (or (not (and (inv_main612_5 var11 var10 var9) (and (and (and (and (and (and (= (O_packet_list_node var8) var7) (= (packet_list_node var6 var5) var8)) (= (packet var4 var3 var2) var6)) (not (<= 0 (+ (+ 500 (* (- 1) var1)) (- 1))))) (<= 0 (+ var1 (- 1)))) (<= 0 var1)) (= (alloc var11 var7) var0)))) (Inv_Heap_exp_exp_exp (newAddr var0) var4 var3 var2 var5))))
(assert (forall ((var0 Addr) (var1 Int) (var2 packet) (var3 AllocResHeap) (var4 Heap) (var5 HeapObject) (var6 packet_list_node) (var7 HeapObject) (var8 packet_list_node) (var9 Addr) (var10 Addr) (var11 Heap) (var12 Addr) (var13 Addr) (var14 Int) (var15 Int) (var16 Addr)) (or (not (and (and (Inv_Heap_exp_exp_exp var16 var15 var14 var13 var12) (inv_main612_5 var11 var10 var9)) (and (and (and (and (and (and (and (and (and (and (= (O_packet_list_node var8) var7) (= (O_packet_list_node var6) var5)) (= (AllocResHeap var4 var16) var3)) (= (packet_list_node var2 var12) var8)) (= (packet var15 var14 var13) var2)) (= (read var4 var16) var7)) (valid var4 var16)) (not (<= 0 (+ (+ 500 (* (- 1) var1)) (- 1))))) (<= 0 (+ var1 (- 1)))) (<= 0 var1)) (= (alloc var11 var5) var3)))) (_Glue5_exp var9 var10 var1 var0 var16 var4 var7))))
(assert (forall ((var0 Addr) (var1 Int) (var2 AllocResHeap) (var3 HeapObject) (var4 packet_list_node) (var5 HeapObject) (var6 Addr) (var7 Heap) (var8 Addr) (var9 Addr) (var10 Heap)) (or (not (and (inv_main612_5 var10 var9 var8) (and (and (and (and (and (and (and (= (read var7 var6) var5) (not (valid var7 var6))) (= (O_packet_list_node var4) var3)) (= (AllocResHeap var7 var6) var2)) (not (<= 0 (+ (+ 500 (* (- 1) var1)) (- 1))))) (<= 0 (+ var1 (- 1)))) (<= 0 var1)) (= (alloc var10 var3) var2)))) (_Glue5_exp var8 var9 var1 var0 var6 var7 var5))))
(assert (forall ((var0 Int) (var1 Addr) (var2 packet_list_node) (var3 HeapObject) (var4 Heap) (var5 Addr) (var6 Addr) (var7 Int) (var8 Addr) (var9 Addr)) (or (not (and (_Glue5_exp var9 var8 var7 var6 var5 var4 var3) (and (and (and (= (getpacket_list_node var3) var2) (= (|packet_list_node::next| var2) var1)) (valid var4 var5)) (= var0 0)))) (Inv_Heap_exp_exp_exp var5 var7 var0 var6 var1))))
(assert (forall ((var0 packet_list_node) (var1 Heap) (var2 packet) (var3 HeapObject) (var4 packet_list_node) (var5 Addr) (var6 packet) (var7 HeapObject) (var8 packet_list_node) (var9 HeapObject) (var10 Heap) (var11 Addr) (var12 Int) (var13 Addr) (var14 Addr) (var15 Addr) (var16 Addr) (var17 Int) (var18 Int) (var19 Addr)) (or (not (and (and (Inv_Heap_exp_exp_exp var19 var18 var17 var16 var15) (_Glue5_exp var14 var13 var12 var11 var19 var10 var9)) (and (and (and (and (and (and (and (and (and (and (= (O_packet_list_node var8) var7) (= (packet_list_node var6 var5) var4)) (= (O_packet_list_node var4) var3)) (= (packet var12 0 var11) var6)) (= (packet_list_node var2 var15) var8)) (= (packet var18 var17 var16) var2)) (= (read var1 var19) var7)) (valid var1 var19)) (= (getpacket_list_node var9) var0)) (= (|packet_list_node::next| var0) var5)) (= (write var10 var19 var3) var1)))) (_Glue7 var1 var14 var13 var19 var7))))
(assert (forall ((var0 packet_list_node) (var1 HeapObject) (var2 packet_list_node) (var3 Addr) (var4 packet) (var5 HeapObject) (var6 Heap) (var7 HeapObject) (var8 Heap) (var9 Addr) (var10 Addr) (var11 Int) (var12 Addr) (var13 Addr)) (or (not (and (_Glue5_exp var13 var12 var11 var10 var9 var8 var7) (and (and (and (and (and (and (and (= (read var6 var9) var5) (not (valid var6 var9))) (= (packet_list_node var4 var3) var2)) (= (O_packet_list_node var2) var1)) (= (packet var11 0 var10) var4)) (= (getpacket_list_node var7) var0)) (= (|packet_list_node::next| var0) var3)) (= (write var8 var9 var1) var6)))) (_Glue7 var6 var13 var12 var9 var5))))
(assert (forall ((var0 packet_list_node) (var1 packet) (var2 Addr) (var3 Int) (var4 Int) (var5 HeapObject) (var6 Addr) (var7 Addr) (var8 Addr) (var9 Heap)) (or (not (and (_Glue7 var9 var8 var7 var6 var5) (and (and (and (= (packet var4 var3 var2) var1) (= (getpacket_list_node var5) var0)) (= (|packet_list_node::packet| var0) var1)) (valid var9 var6)))) (Inv_Heap_exp_exp_exp var6 var4 var3 var2 var8))))
(assert (forall ((var0 Heap) (var1 HeapObject) (var2 packet_list_node) (var3 packet) (var4 packet_list_node) (var5 HeapObject) (var6 Addr) (var7 Addr) (var8 Addr) (var9 Heap)) (or (not (and (_Glue7 var9 var8 var7 var6 var5) (and (and (and (and (= (getpacket_list_node var5) var4) (= (|packet_list_node::packet| var4) var3)) (= (packet_list_node var3 var8) var2)) (= (O_packet_list_node var2) var1)) (= (write var9 var6 var1) var0)))) (inv_main612_5 var0 var7 var6))))
(assert (forall ((var0 AllocResHeap) (var1 Int) (var2 Addr) (var3 Int) (var4 Int) (var5 Addr) (var6 packet) (var7 HeapObject) (var8 packet_list_node) (var9 Addr) (var10 Addr) (var11 Heap)) (or (not (and (inv_main612_5 var11 var10 var9) (and (and (and (and (and (= (O_packet_list_node var8) var7) (= (packet_list_node var6 var5) var8)) (= (packet var4 var3 var2) var6)) (<= 0 (+ var1 (- 1)))) (<= 0 var1)) (= (alloc var11 var7) var0)))) (Inv_Heap_exp_exp_exp (newAddr var0) var4 var3 var2 var5))))
(assert (forall ((var0 Addr) (var1 Int) (var2 packet) (var3 AllocResHeap) (var4 Heap) (var5 HeapObject) (var6 packet_list_node) (var7 HeapObject) (var8 packet_list_node) (var9 Addr) (var10 Addr) (var11 Heap) (var12 Addr) (var13 Addr) (var14 Int) (var15 Int) (var16 Addr)) (or (not (and (and (Inv_Heap_exp_exp_exp var16 var15 var14 var13 var12) (inv_main612_5 var11 var10 var9)) (and (and (and (and (and (and (and (and (and (= (O_packet_list_node var8) var7) (= (O_packet_list_node var6) var5)) (= (AllocResHeap var4 var16) var3)) (= (packet_list_node var2 var12) var8)) (= (packet var15 var14 var13) var2)) (= (read var4 var16) var7)) (valid var4 var16)) (<= 0 (+ var1 (- 1)))) (<= 0 var1)) (= (alloc var11 var5) var3)))) (_Glue9_exp var10 var9 var1 var0 var16 var4 var7))))
(assert (forall ((var0 Addr) (var1 Int) (var2 AllocResHeap) (var3 HeapObject) (var4 packet_list_node) (var5 HeapObject) (var6 Addr) (var7 Heap) (var8 Addr) (var9 Addr) (var10 Heap)) (or (not (and (inv_main612_5 var10 var9 var8) (and (and (and (and (and (and (= (read var7 var6) var5) (not (valid var7 var6))) (= (O_packet_list_node var4) var3)) (= (AllocResHeap var7 var6) var2)) (<= 0 (+ var1 (- 1)))) (<= 0 var1)) (= (alloc var10 var3) var2)))) (_Glue9_exp var9 var8 var1 var0 var6 var7 var5))))
(assert (forall ((var0 Int) (var1 Addr) (var2 packet_list_node) (var3 HeapObject) (var4 Heap) (var5 Addr) (var6 Addr) (var7 Int) (var8 Addr) (var9 Addr)) (or (not (and (_Glue9_exp var9 var8 var7 var6 var5 var4 var3) (and (and (and (= (getpacket_list_node var3) var2) (= (|packet_list_node::next| var2) var1)) (valid var4 var5)) (= var0 1)))) (Inv_Heap_exp_exp_exp var5 var7 var0 var6 var1))))
(assert (forall ((var0 packet_list_node) (var1 Heap) (var2 packet) (var3 HeapObject) (var4 packet_list_node) (var5 Addr) (var6 packet) (var7 HeapObject) (var8 packet_list_node) (var9 HeapObject) (var10 Heap) (var11 Addr) (var12 Int) (var13 Addr) (var14 Addr) (var15 Addr) (var16 Addr) (var17 Int) (var18 Int) (var19 Addr)) (or (not (and (and (Inv_Heap_exp_exp_exp var19 var18 var17 var16 var15) (_Glue9_exp var14 var13 var12 var11 var19 var10 var9)) (and (and (and (and (and (and (and (and (and (and (= (O_packet_list_node var8) var7) (= (packet_list_node var6 var5) var4)) (= (O_packet_list_node var4) var3)) (= (packet var12 1 var11) var6)) (= (packet_list_node var2 var15) var8)) (= (packet var18 var17 var16) var2)) (= (read var1 var19) var7)) (valid var1 var19)) (= (getpacket_list_node var9) var0)) (= (|packet_list_node::next| var0) var5)) (= (write var10 var19 var3) var1)))) (_Glue11 var1 var14 var13 var19 var7))))
(assert (forall ((var0 packet_list_node) (var1 HeapObject) (var2 packet_list_node) (var3 Addr) (var4 packet) (var5 HeapObject) (var6 Heap) (var7 HeapObject) (var8 Heap) (var9 Addr) (var10 Addr) (var11 Int) (var12 Addr) (var13 Addr)) (or (not (and (_Glue9_exp var13 var12 var11 var10 var9 var8 var7) (and (and (and (and (and (and (and (= (read var6 var9) var5) (not (valid var6 var9))) (= (packet_list_node var4 var3) var2)) (= (O_packet_list_node var2) var1)) (= (packet var11 1 var10) var4)) (= (getpacket_list_node var7) var0)) (= (|packet_list_node::next| var0) var3)) (= (write var8 var9 var1) var6)))) (_Glue11 var6 var13 var12 var9 var5))))
(assert (forall ((var0 packet_list_node) (var1 packet) (var2 Addr) (var3 Int) (var4 Int) (var5 HeapObject) (var6 Addr) (var7 Addr) (var8 Addr) (var9 Heap)) (or (not (and (_Glue11 var9 var8 var7 var6 var5) (and (and (and (= (packet var4 var3 var2) var1) (= (getpacket_list_node var5) var0)) (= (|packet_list_node::packet| var0) var1)) (valid var9 var6)))) (Inv_Heap_exp_exp_exp var6 var4 var3 var2 var8))))
(assert (forall ((var0 Heap) (var1 HeapObject) (var2 packet_list_node) (var3 packet) (var4 packet_list_node) (var5 HeapObject) (var6 Addr) (var7 Addr) (var8 Addr) (var9 Heap)) (or (not (and (_Glue11 var9 var8 var7 var6 var5) (and (and (and (and (= (getpacket_list_node var5) var4) (= (|packet_list_node::packet| var4) var3)) (= (packet_list_node var3 var8) var2)) (= (O_packet_list_node var2) var1)) (= (write var9 var6 var1) var0)))) (inv_main612_5 var0 var6 var7))))
(assert (forall ((var0 Int) (var1 Addr) (var2 Addr) (var3 Heap)) (or (not (and (inv_main612_5 var3 var2 var1) (and (<= 0 var0) (not (<= 0 (+ var0 (- 1))))))) (inv_main612_5 var3 var2 var1))))
(assert (forall ((var0 Addr) (var1 packet) (var2 HeapObject) (var3 packet_list_node) (var4 Addr) (var5 Heap) (var6 Addr) (var7 Addr) (var8 Int) (var9 Int) (var10 Addr)) (or (not (and (and (Inv_Heap_exp_exp_exp var10 var9 var8 var7 var6) (inv_main597_87 var5 var4 var10)) (and (and (and (and (and (and (and (and (= (O_packet_list_node var3) var2) (= (packet_list_node var1 var6) var3)) (= (packet var9 var8 var7) var1)) (= (read var5 var10) var2)) (= nullAddr var0)) (not (= var10 var0))) (not (<= 0 (+ (+ 500 (* (- 1) var9)) (- 1))))) (not (= var8 1))) (valid var5 var10)))) (inv_main597_87 var5 var4 var6))))
(assert (forall ((var0 Int) (var1 Int) (var2 packet) (var3 Addr) (var4 Addr) (var5 packet_list_node) (var6 HeapObject) (var7 Addr) (var8 Addr) (var9 Heap)) (or (not (and (inv_main597_87 var9 var8 var7) (and (and (and (and (and (and (and (and (and (and (= (read var9 var7) var6) (= (getpacket_list_node var6) var5)) (= (|packet_list_node::next| var5) var4)) (= nullAddr var3)) (= (|packet_list_node::packet| var5) var2)) (= (|packet::size| var2) var1)) (= (|packet::prio| var2) var0)) (not (= var7 var3))) (not (<= 0 (+ (+ 500 (* (- 1) var1)) (- 1))))) (not (= var0 1))) (not (valid var9 var7))))) (inv_main597_87 var9 var8 var4))))
(assert (forall ((var0 AllocResHeap) (var1 Int) (var2 Addr) (var3 Int) (var4 Int) (var5 Addr) (var6 packet) (var7 HeapObject) (var8 packet_list_node) (var9 Addr) (var10 Addr) (var11 Heap)) (or (not (and (inv_main612_5 var11 var10 var9) (and (and (and (and (and (and (= (O_packet_list_node var8) var7) (= (packet_list_node var6 var5) var8)) (= (packet var4 var3 var2) var6)) (<= 0 (+ (+ 500 (* (- 1) var1)) (- 1)))) (<= 0 (+ var1 (- 1)))) (<= 0 var1)) (= (alloc var11 var7) var0)))) (Inv_Heap_exp_exp_exp (newAddr var0) var4 var3 var2 var5))))
(assert (forall ((var0 Addr) (var1 Int) (var2 packet) (var3 AllocResHeap) (var4 Heap) (var5 HeapObject) (var6 packet_list_node) (var7 HeapObject) (var8 packet_list_node) (var9 Addr) (var10 Addr) (var11 Heap) (var12 Addr) (var13 Addr) (var14 Int) (var15 Int) (var16 Addr)) (or (not (and (and (Inv_Heap_exp_exp_exp var16 var15 var14 var13 var12) (inv_main612_5 var11 var10 var9)) (and (and (and (and (and (and (and (and (and (and (= (O_packet_list_node var8) var7) (= (O_packet_list_node var6) var5)) (= (AllocResHeap var4 var16) var3)) (= (packet_list_node var2 var12) var8)) (= (packet var15 var14 var13) var2)) (= (read var4 var16) var7)) (valid var4 var16)) (<= 0 (+ (+ 500 (* (- 1) var1)) (- 1)))) (<= 0 (+ var1 (- 1)))) (<= 0 var1)) (= (alloc var11 var5) var3)))) (_Glue1_exp var10 var9 var1 var0 var16 var4 var7))))
(assert (forall ((var0 Addr) (var1 Int) (var2 AllocResHeap) (var3 HeapObject) (var4 packet_list_node) (var5 HeapObject) (var6 Addr) (var7 Heap) (var8 Addr) (var9 Addr) (var10 Heap)) (or (not (and (inv_main612_5 var10 var9 var8) (and (and (and (and (and (and (and (= (read var7 var6) var5) (not (valid var7 var6))) (= (O_packet_list_node var4) var3)) (= (AllocResHeap var7 var6) var2)) (<= 0 (+ (+ 500 (* (- 1) var1)) (- 1)))) (<= 0 (+ var1 (- 1)))) (<= 0 var1)) (= (alloc var10 var3) var2)))) (_Glue1_exp var9 var8 var1 var0 var6 var7 var5))))
(assert (forall ((var0 Int) (var1 Addr) (var2 packet_list_node) (var3 HeapObject) (var4 Heap) (var5 Addr) (var6 Addr) (var7 Int) (var8 Addr) (var9 Addr)) (or (not (and (_Glue1_exp var9 var8 var7 var6 var5 var4 var3) (and (and (and (= (getpacket_list_node var3) var2) (= (|packet_list_node::next| var2) var1)) (valid var4 var5)) (= var0 0)))) (Inv_Heap_exp_exp_exp var5 var7 var0 var6 var1))))
(assert (forall ((var0 packet_list_node) (var1 Heap) (var2 packet) (var3 HeapObject) (var4 packet_list_node) (var5 Addr) (var6 packet) (var7 HeapObject) (var8 packet_list_node) (var9 HeapObject) (var10 Heap) (var11 Addr) (var12 Int) (var13 Addr) (var14 Addr) (var15 Addr) (var16 Addr) (var17 Int) (var18 Int) (var19 Addr)) (or (not (and (and (Inv_Heap_exp_exp_exp var19 var18 var17 var16 var15) (_Glue1_exp var14 var13 var12 var11 var19 var10 var9)) (and (and (and (and (and (and (and (and (and (and (= (O_packet_list_node var8) var7) (= (packet_list_node var6 var5) var4)) (= (O_packet_list_node var4) var3)) (= (packet var12 0 var11) var6)) (= (packet_list_node var2 var15) var8)) (= (packet var18 var17 var16) var2)) (= (read var1 var19) var7)) (valid var1 var19)) (= (getpacket_list_node var9) var0)) (= (|packet_list_node::next| var0) var5)) (= (write var10 var19 var3) var1)))) (_Glue3 var1 var14 var13 var19 var7))))
(assert (forall ((var0 packet_list_node) (var1 HeapObject) (var2 packet_list_node) (var3 Addr) (var4 packet) (var5 HeapObject) (var6 Heap) (var7 HeapObject) (var8 Heap) (var9 Addr) (var10 Addr) (var11 Int) (var12 Addr) (var13 Addr)) (or (not (and (_Glue1_exp var13 var12 var11 var10 var9 var8 var7) (and (and (and (and (and (and (and (= (read var6 var9) var5) (not (valid var6 var9))) (= (packet_list_node var4 var3) var2)) (= (O_packet_list_node var2) var1)) (= (packet var11 0 var10) var4)) (= (getpacket_list_node var7) var0)) (= (|packet_list_node::next| var0) var3)) (= (write var8 var9 var1) var6)))) (_Glue3 var6 var13 var12 var9 var5))))
(assert (forall ((var0 packet_list_node) (var1 packet) (var2 Addr) (var3 Int) (var4 Int) (var5 HeapObject) (var6 Addr) (var7 Addr) (var8 Addr) (var9 Heap)) (or (not (and (_Glue3 var9 var8 var7 var6 var5) (and (and (and (= (packet var4 var3 var2) var1) (= (getpacket_list_node var5) var0)) (= (|packet_list_node::packet| var0) var1)) (valid var9 var6)))) (Inv_Heap_exp_exp_exp var6 var4 var3 var2 var8))))
(assert (forall ((var0 Heap) (var1 HeapObject) (var2 packet_list_node) (var3 packet) (var4 packet_list_node) (var5 HeapObject) (var6 Addr) (var7 Addr) (var8 Addr) (var9 Heap)) (or (not (and (_Glue3 var9 var8 var7 var6 var5) (and (and (and (and (= (getpacket_list_node var5) var4) (= (|packet_list_node::packet| var4) var3)) (= (packet_list_node var3 var8) var2)) (= (O_packet_list_node var2) var1)) (= (write var9 var6 var1) var0)))) (inv_main612_5 var0 var6 var7))))
(assert (forall ((var0 packet) (var1 HeapObject) (var2 packet_list_node) (var3 Addr) (var4 Heap) (var5 Addr) (var6 Addr) (var7 Int) (var8 Addr)) (or (not (and (and (Inv_Heap_exp_exp_exp var8 var7 0 var6 var5) (inv_main604_87 var4 var8)) (and (and (and (and (and (and (and (not (= var3 var8)) (<= 0 (+ var7 (- 500)))) (= (O_packet_list_node var2) var1)) (= (packet_list_node var0 var5) var2)) (= (packet var7 0 var6) var0)) (= nullAddr var3)) (= (read var4 var8) var1)) (valid var4 var8)))) (inv_main604_87 var4 var5))))
(assert (forall ((var0 Addr) (var1 packet) (var2 packet_list_node) (var3 HeapObject) (var4 Int) (var5 Addr) (var6 Addr) (var7 Heap)) (or (not (and (inv_main604_87 var7 var6) (and (and (and (and (and (and (and (and (and (not (= var5 var6)) (<= 0 (+ var4 (- 500)))) (= nullAddr var5)) (= (read var7 var6) var3)) (= (getpacket_list_node var3) var2)) (= (|packet_list_node::packet| var2) var1)) (= (|packet::size| var1) var4)) (= (|packet::prio| var1) 0)) (= (|packet_list_node::next| var2) var0)) (not (valid var7 var6))))) (inv_main604_87 var7 var0))))
(assert (forall ((var0 Addr) (var1 Heap) (var2 Addr)) (or (not (and (and (= nullAddr var2) (= emptyHeap var1)) (= var0 var2))) (inv_main612_5 var1 var0 var2))))
(assert (forall ((var0 Int) (var1 Addr) (var2 Addr) (var3 Heap)) (or (not (and (inv_main612_5 var3 var2 var1) (and (<= 0 var0) (not (<= 0 (+ var0 (- 1))))))) (inv_main612_5 var3 var2 var1))))
(assert (forall ((var0 Addr) (var1 Addr) (var2 Heap)) (or (not (inv_main612_5 var2 var1 var0)) (inv_main597_87 var2 var0 var1))))
(assert (forall ((var0 packet) (var1 HeapObject) (var2 packet_list_node) (var3 Addr) (var4 Addr) (var5 Heap) (var6 Addr) (var7 Addr) (var8 Int) (var9 Int) (var10 Addr)) (or (not (and (and (Inv_Heap_exp_exp_exp var10 var9 var8 var7 var6) (inv_main597_87 var5 var4 var10)) (and (and (and (and (and (and (and (and (not (= var8 1)) (not (= var3 var10))) (<= 0 (+ (* (- 1) var9) 499))) (= (O_packet_list_node var2) var1)) (= (packet_list_node var0 var6) var2)) (= (packet var9 var8 var7) var0)) (= nullAddr var3)) (= (read var5 var10) var1)) (valid var5 var10)))) (inv_main597_87 var5 var4 var6))))
(assert (forall ((var0 Addr) (var1 packet) (var2 packet_list_node) (var3 HeapObject) (var4 Int) (var5 Addr) (var6 Int) (var7 Addr) (var8 Addr) (var9 Heap)) (or (not (and (inv_main597_87 var9 var8 var7) (and (and (and (and (and (and (and (and (and (and (not (= var6 1)) (not (= var5 var7))) (<= 0 (+ (* (- 1) var4) 499))) (= nullAddr var5)) (= (read var9 var7) var3)) (= (getpacket_list_node var3) var2)) (= (|packet_list_node::packet| var2) var1)) (= (|packet::size| var1) var4)) (= (|packet::prio| var1) var6)) (= (|packet_list_node::next| var2) var0)) (not (valid var9 var7))))) (inv_main597_87 var9 var8 var0))))
(assert (forall ((var0 packet) (var1 HeapObject) (var2 packet_list_node) (var3 Heap) (var4 Addr) (var5 Addr) (var6 Int) (var7 Int) (var8 Addr)) (or (not (and (and (Inv_Heap_exp_exp_exp var8 var7 var6 var5 var4) (inv_main605_13 var3 var8)) (and (and (and (and (= (O_packet_list_node var2) var1) (= (packet_list_node var0 var4) var2)) (= (packet var7 var6 var5) var0)) (= (read var3 var8) var1)) (valid var3 var8)))) (inv_main604_87 var3 var4))))
(assert (forall ((var0 Addr) (var1 packet_list_node) (var2 HeapObject) (var3 Addr) (var4 Heap)) (or (not (and (inv_main605_13 var4 var3) (and (and (and (= (read var4 var3) var2) (= (getpacket_list_node var2) var1)) (= (|packet_list_node::next| var1) var0)) (not (valid var4 var3))))) (inv_main604_87 var4 var0))))
(assert (forall ((var0 Addr) (var1 Heap)) (not (inv_main605_13 var1 var0))))
(assert (forall ((var0 Addr) (var1 packet) (var2 HeapObject) (var3 packet_list_node) (var4 Heap) (var5 Addr) (var6 Addr) (var7 Int) (var8 Int) (var9 Addr)) (or (not (and (and (Inv_Heap_exp_exp_exp var9 var8 var7 var6 var5) (inv_main604_87 var4 var9)) (and (and (and (and (and (and (and (= (O_packet_list_node var3) var2) (= (packet_list_node var1 var5) var3)) (= (packet var8 var7 var6) var1)) (not (= var9 var0))) (not (= var7 0))) (= nullAddr var0)) (= (read var4 var9) var2)) (valid var4 var9)))) (inv_main605_13 var4 var9))))
(assert (forall ((var0 packet) (var1 packet_list_node) (var2 HeapObject) (var3 Int) (var4 Addr) (var5 Addr) (var6 Heap)) (or (not (and (inv_main604_87 var6 var5) (and (and (and (and (and (and (and (not (= var5 var4)) (not (= var3 0))) (= nullAddr var4)) (= (read var6 var5) var2)) (= (getpacket_list_node var2) var1)) (= (|packet_list_node::packet| var1) var0)) (= (|packet::prio| var0) var3)) (not (valid var6 var5))))) (inv_main605_13 var6 var5))))
(assert (forall ((var0 Addr) (var1 Addr) (var2 Heap)) (or (not (and (inv_main597_87 var2 var1 var0) (= nullAddr var0))) (inv_main604_87 var2 var1))))
(check-sat)
